1664582
32,56,40,5,60,29,25,30,41,6,23,49,19,54,65,45,27,17,36,59,16,63,21,38,67,7,64,11,66,26,55,34,46,43,31,22,52,33,57,18,10,14,44,28,50,37,62,39,51,35,53,68,8,15,58,9,2,48,20,4,47,13,1,24,61,3,42,12